p edge 40 334
e 1 3
e 1 5
e 1 6
e 1 7
e 1 9
e 1 12
e 1 16
e 1 23
e 1 24
e 1 25
e 1 28
e 1 29
e 1 31
e 1 36
e 1 40
e 2 3
e 2 6
e 2 7
e 2 9
e 2 13
e 2 14
e 2 15
e 2 16
e 2 23
e 2 25
e 2 26
e 2 28
e 2 29
e 2 30
e 2 37
e 3 4
e 3 5
e 3 6
e 3 8
e 3 9
e 3 11
e 3 14
e 3 15
e 3 21
e 3 23
e 3 24
e 3 26
e 3 28
e 3 30
e 3 31
e 3 32
e 3 33
e 3 34
e 3 36
e 3 39
e 3 40
e 4 9
e 4 12
e 4 13
e 4 14
e 4 16
e 4 17
e 4 19
e 4 22
e 4 24
e 4 25
e 4 26
e 4 28
e 4 34
e 4 35
e 4 37
e 4 39
e 5 6
e 5 7
e 5 11
e 5 15
e 5 16
e 5 21
e 5 24
e 5 25
e 5 26
e 5 28
e 5 29
e 5 31
e 5 32
e 5 33
e 5 34
e 5 36
e 5 37
e 5 38
e 5 39
e 5 40
e 6 9
e 6 10
e 6 16
e 6 19
e 6 20
e 6 22
e 6 24
e 6 27
e 6 29
e 6 32
e 6 33
e 6 35
e 6 37
e 6 38
e 7 8
e 7 11
e 7 12
e 7 13
e 7 16
e 7 17
e 7 18
e 7 20
e 7 21
e 7 23
e 7 28
e 7 31
e 7 34
e 7 35
e 7 37
e 7 38
e 7 40
e 8 13
e 8 17
e 8 19
e 8 23
e 8 24
e 8 27
e 8 28
e 8 31
e 8 38
e 8 39
e 8 40
e 9 11
e 9 17
e 9 18
e 9 23
e 9 25
e 9 28
e 9 30
e 9 35
e 9 38
e 9 39
e 9 40
e 10 18
e 10 21
e 10 22
e 10 24
e 10 25
e 10 27
e 10 31
e 10 33
e 10 34
e 10 38
e 10 40
e 11 14
e 11 17
e 11 23
e 11 24
e 11 25
e 11 26
e 11 32
e 11 33
e 11 35
e 11 37
e 12 13
e 12 14
e 12 15
e 12 16
e 12 17
e 12 21
e 12 22
e 12 24
e 12 25
e 12 27
e 12 29
e 12 32
e 12 37
e 12 39
e 13 14
e 13 15
e 13 16
e 13 17
e 13 19
e 13 20
e 13 21
e 13 23
e 13 24
e 13 25
e 13 26
e 13 27
e 13 34
e 14 16
e 14 17
e 14 18
e 14 23
e 14 24
e 14 26
e 14 27
e 14 32
e 14 37
e 14 38
e 14 40
e 15 18
e 15 19
e 15 23
e 15 26
e 15 28
e 15 29
e 15 30
e 15 32
e 15 34
e 15 36
e 16 17
e 16 18
e 16 20
e 16 23
e 16 24
e 16 39
e 16 40
e 17 20
e 17 29
e 17 31
e 17 33
e 17 34
e 17 36
e 17 37
e 17 38
e 18 21
e 18 25
e 18 27
e 18 30
e 18 35
e 18 36
e 18 37
e 18 38
e 18 39
e 18 40
e 19 20
e 19 21
e 19 23
e 19 24
e 19 26
e 19 31
e 19 35
e 19 39
e 20 23
e 20 24
e 20 26
e 20 27
e 20 29
e 20 32
e 20 38
e 21 23
e 21 24
e 21 25
e 21 26
e 21 29
e 21 33
e 21 34
e 21 36
e 21 39
e 21 40
e 22 24
e 22 25
e 22 29
e 22 32
e 22 33
e 22 34
e 22 38
e 23 26
e 23 27
e 23 28
e 23 29
e 23 32
e 23 36
e 23 37
e 23 38
e 24 25
e 24 26
e 24 28
e 24 32
e 24 33
e 24 37
e 25 26
e 25 29
e 25 30
e 25 31
e 25 33
e 25 38
e 25 39
e 25 40
e 26 30
e 26 31
e 26 32
e 26 33
e 26 34
e 26 35
e 27 29
e 27 30
e 27 31
e 27 34
e 27 37
e 27 38
e 28 36
e 28 37
e 29 36
e 29 37
e 29 38
e 29 39
e 30 32
e 30 33
e 30 34
e 30 35
e 30 39
e 31 32
e 31 33
e 31 34
e 31 36
e 31 37
e 31 38
e 31 40
e 32 35
e 32 37
e 32 39
e 32 40
e 33 39
e 33 40
e 34 36
e 34 37
e 35 36
e 35 38
e 35 40
e 36 40
e 37 40
e 38 39
e 38 40
e 39 40